(declare-const term_to_project_onto Real)
(declare-const term_to_project_onto1 Real)
(declare-const term_to_project_onto2 Real)
(declare-const term_to_project_onto0 Real)
(assert (exists
         ((uninterp?1 Int) (uninterp?2 Int) (uninterp?3 Int) (uninterp?4 Int)
            (uninterp?5 Int) (uninterp?6 Int) (uninterp?7 Int) (|u'?8| Int)
            (|y'?9| Int) (K?10 Int) (|v'?11| Int) (|x'?12| Int) (K?13 Int)
            (|v'?14| Int) (|x'?15| Int) (|u'?16| Int) (|y'?17| Int)
            (x?18 Int) (u?19 Int) (y?20 Int) (v?21 Int) (b?22 Int) (a?23 Int))
         (and (<= (+ (- x?18) 1) 0) (<= (+ (- u?19) 1) 0)
                (<= (+ (- y?20) 1) 0) (<= (- v?21) 0) (<= (+ (- b?22) 1) 0)
                (<= (+ (- a?23) 1) 0)
                (= (+ (- uninterp?7) uninterp?6 uninterp?5) 0)
                (or (<= (+ (- y?20) x?18 1) 0) (<= (+ y?20 (- x?18) 1) 0))
                (<= (+ |x'?12| K?13 (- x?18)) 0)
                (<= (+ (- |v'?11|) K?13 v?21) 0)
                (or (and (= K?13 0) (= (+ (- |v'?11|) v?21) 0)
                           (= (+ (- |x'?12|) x?18) 0))
                      (and (<= (+ (- K?13) 1) 0) (<= (+ y?20 (- x?18) 1) 0)
                             (<= (+ (- u?19) 1) 0) (<= (+ (- y?20) 1) 0)
                             (<= (- v?21) 0) (<= (+ (- b?22) 1) 0)
                             (<= (+ (- a?23) 1) 0)
                             (<= (+ (- |v'?11|) u?19) 0)
                             (<= (+ (- |x'?12|) 1) 0) (<= (+ (- u?19) 1) 0)
                             (<= (+ (- y?20) 1) 0) (<= (+ (- b?22) 1) 0)
                             (<= (+ (- a?23) 1) 0))) (<= (- K?13) 0)
                (<= (+ (- |x'?12|) 1) 0) (<= (+ (- u?19) 1) 0)
                (<= (+ (- y?20) 1) 0) (<= (- |v'?11|) 0)
                (<= (+ (- b?22) 1) 0) (<= (+ (- a?23) 1) 0)
                (= (+ (- uninterp?7) uninterp?4 uninterp?3) 0)
                (<= (+ |x'?12| (- y?20)) 0) (<= (+ |y'?9| K?10 (- y?20)) 0)
                (<= (+ (- |u'?8|) u?19) 0)
                (or (and (= K?10 0) (= (+ (- |u'?8|) u?19) 0)
                           (= (+ (- |y'?9|) y?20) 0))
                      (and (<= (+ (- K?10) 1) 0) (<= (+ (- |x'?12|) 1) 0)
                             (<= (+ (- u?19) 1) 0)
                             (<= (+ |x'?12| (- y?20) 1) 0) (<= (- |v'?11|) 0)
                             (<= (+ (- b?22) 1) 0) (<= (+ (- a?23) 1) 0)
                             (<= (+ (- |u'?8|) |v'?11| 1) 0)
                             (<= (+ (- |y'?9|) 1) 0) (<= (+ (- |x'?12|) 1) 0)
                             (<= (- |v'?11|) 0) (<= (+ (- b?22) 1) 0)
                             (<= (+ (- a?23) 1) 0))) (<= (- K?10) 0)
                (<= (+ (- |x'?12|) 1) 0) (<= (+ (- |u'?8|) 1) 0)
                (<= (+ (- |y'?9|) 1) 0) (<= (- |v'?11|) 0)
                (<= (+ (- b?22) 1) 0) (<= (+ (- a?23) 1) 0)
                (= (+ uninterp?2 uninterp?1 (- uninterp?7)) 0)
                (<= (+ |y'?9| (- |x'?12|)) 0) (= (+ |v'?14| (- |v'?11|)) 0)
                (= (+ |u'?16| (- |u'?8|)) 0) (= (+ |y'?17| (- |y'?9|)) 0)
                (= (+ |x'?15| (- |x'?12|)) 0) (<= 1 uninterp?1)
                (<= |x'?12| uninterp?1) (<= |u'?8| uninterp?1)
                (<= 0 uninterp?2) (<= |v'?11| uninterp?2) (<= 1 uninterp?3)
                (<= u?19 uninterp?3) (<= |x'?12| uninterp?3)
                (<= 0 uninterp?4) (<= |v'?11| uninterp?4) (<= 1 uninterp?5)
                (<= x?18 uninterp?5) (<= u?19 uninterp?5) (<= 0 uninterp?6)
                (<= v?21 uninterp?6) (<= 1 uninterp?7) (<= b?22 uninterp?7)
                (<= a?23 uninterp?7)
                (= 0 (+ (- uninterp?7) uninterp?6 uninterp?5))
                (= 0 (+ (- uninterp?7) uninterp?4 uninterp?3))
                (= 0 (+ (- uninterp?7) uninterp?2 uninterp?1))
                (= term_to_project_onto2 (+ |x'?15| (- x?18)))
                (= term_to_project_onto1 (+ |y'?17| (- y?20)))
                (= term_to_project_onto0 (+ |u'?16| (- u?19)))
                (= term_to_project_onto (+ |v'?14| (- v?21))))))
(check-sat)
